networks/zoo_136_2734/standard/zoo_136_2734.txt
OKAY
Number of groups: 67
Flow 13: {62 14 0} {14 82 1} 
Flow 34: {12 11 0} {11 7 1} {7 36 2} {36 104 3} 
Flow 39: {41 109 0} 
Flow 134: {61 63 0} {63 16 1} {16 84 2} 
Flow 146: {68 31 0} {31 99 1} 
Flow 164: {7 51 0} {51 50 1} {50 118 2} 
Flow 176: {3 59 0} {59 61 1} {61 64 2} {64 132 3} 
Flow 236: {5 8 0} {8 2 1} {2 70 2} 
Flow 240: {6 7 0} {7 75 1} 
Flow 355: {11 12 0} {12 56 1} {56 124 2} 
Flow 371: {8 5 0} {5 6 1} {6 74 2} 
Flow 373: {2 7 0} {7 3 1} {3 4 2} {4 9 3} {9 77 4} 
Flow 408: {34 53 0} {53 121 1} 
Flow 428: {9 30 0} {30 10 1} {10 78 2} 
Flow 482: {10 30 0} {30 4 1} {4 1 2} {1 63 3} {63 131 4} 
Flow 617: {13 62 0} {62 41 1} {41 42 2} {42 39 3} {39 107 4} 
Flow 630: {14 62 0} {62 63 1} {63 1 2} {1 4 3} {4 72 4} 
Flow 641: {15 63 0} {63 61 1} {61 59 2} {59 127 3} 
Flow 657: {16 63 0} {63 26 1} {26 17 2} {17 18 3} {18 86 4} 
Flow 723: {40 39 0} {39 42 1} {42 110 2} 
Flow 831: {19 52 0} {52 33 1} {33 101 2} 
Flow 864: {21 52 0} {52 12 1} {12 1 2} {1 69 3} 
Flow 921: {22 52 0} {52 21 1} {21 89 2} 
Flow 961: {23 53 0} {53 34 1} {34 2 2} {2 8 3} {8 76 4} 
Flow 1037: {24 53 0} {53 52 1} {52 48 2} {48 116 3} 
Flow 1070: {25 53 0} {53 24 1} {24 92 2} 
Flow 1096: {27 9 0} {9 4 1} {4 3 2} {3 7 3} {7 19 4} 
Flow 1124: {1 12 0} {12 51 1} {51 38 2} {38 106 3} 
Flow 1144: {28 4 0} {4 65 1} {65 133 2} 
Flow 1183: {29 53 0} 
Flow 1210: {30 9 0} {9 27 1} {27 95 2} 
Flow 1211: {4 28 0} {28 96 1} 
Flow 1243: {31 68 0} {68 63 1} {63 62 2} {62 130 3} 
Flow 1271: {32 68 0} {68 136 1} 
Flow 1300: {18 40 0} {40 108 1} 
Flow 1310: {33 52 0} {52 54 1} {54 122 2} 
Flow 1365: {35 2 0} {2 34 1} {34 102 2} 
Flow 1399: {36 7 0} {7 52 1} {52 20 2} {20 88 3} 
Flow 1438: {63 15 0} {15 83 1} 
Flow 1460: {37 51 0} {51 49 1} {49 117 2} 
Flow 1475: {38 51 0} {51 12 1} {12 80 2} 
Flow 1492: {39 40 0} {40 18 1} {18 17 2} {17 26 3} {26 94 4} 
Flow 1518: {42 41 0} {41 62 1} {62 13 2} {13 81 3} 
Flow 1521: {17 85 0} 
Flow 1532: {26 63 0} {63 68 1} {68 32 2} {32 100 3} 
Flow 1666: {43 62 0} {62 61 1} {61 129 2} 
Flow 1692: {44 62 0} {62 45 1} {45 113 2} 
Flow 1734: {45 62 0} {62 44 1} {44 112 2} 
Flow 1751: {47 52 0} {52 19 1} {19 87 2} 
Flow 1771: {48 52 0} {52 120 1} 
Flow 1788: {49 51 0} {51 119 1} 
Flow 1819: {50 51 0} {51 37 1} {37 105 2} 
Flow 1895: {51 7 0} {7 59 1} 
Flow 2010: {54 52 0} {52 7 1} {7 6 2} {6 5 3} {5 73 4} 
Flow 2066: {55 52 0} {52 22 1} {22 90 2} 
Flow 2126: {56 12 0} {12 52 1} {52 47 2} {47 115 3} 
Flow 2187: {57 61 0} {61 67 1} {67 135 2} 
Flow 2198: {58 53 0} {53 19 1} {19 7 2} {7 11 3} {11 79 4} 
Flow 2328: {60 61 0} {61 62 1} {62 46 2} {46 114 3} 
Flow 2346: {59 3 0} {3 71 1} 
Flow 2367: {19 53 0} {53 25 1} {25 93 2} 
Flow 2564: {52 55 0} {55 123 1} 
Flow 2567: {64 61 0} {61 60 1} {60 128 2} 
Flow 2597: {65 4 0} {4 30 1} {30 98 2} 
Flow 2650: {59 7 0} {7 2 1} {2 35 2} {35 103 3} 
Flow 2666: {67 61 0} {61 57 1} {57 125 2} 
Flow 2700: {52 53 0} {53 29 1} {29 97 2} 
Time taken running everything: 0 seconds
