networks/zoo_136_2734/standard/zoo_136_2734.sol
<?xml version = "1.0" encoding="UTF-8" standalone="yes"?>
<CPLEXSolution version="1.2">
 <header
   problemName="networks/zoo_136_2734/zoo_136_2734.lp"
   solutionName="incumbent"
   solutionIndex="-1"
   objectiveValue="67"
   solutionTypeValue="3"
   solutionTypeString="primal"
   solutionStatusValue="107"
   solutionStatusString="time limit exceeded"
   solutionMethodString="mip"
   primalFeasible="1"
   dualFeasible="0"
   MIPNodes="1569"
   MIPIterations="622256"
   writeLevel="3"/>
 <quality
   epInt="1.0000000000000001e-05"
   epRHS="9.9999999999999995e-07"
   maxIntInfeas="0"
   maxPrimalInfeas="2.000000165480742e-09"
   maxX="4"
   maxSlack="10"/>
 <variables>
  <variable name="Y(13,14)" index="1585" value="1"/>
  <variable name="Y(34,36)" index="4358" value="1"/>
  <variable name="Y(39,41)" index="5018" value="1"/>
  <variable name="Y(134,16)" index="17438" value="1"/>
  <variable name="Y(146,31)" index="19025" value="1"/>
  <variable name="Y(164,50)" index="21402" value="1"/>
  <variable name="Y(176,64)" index="22988" value="1"/>
  <variable name="Y(236,2)" index="30786" value="1"/>
  <variable name="Y(240,7)" index="31315" value="1"/>
  <variable name="Y(355,56)" index="46429" value="1"/>
  <variable name="Y(371,6)" index="48475" value="1"/>
  <variable name="Y(373,9)" index="48740" value="1"/>
  <variable name="Y(408,53)" index="53369" value="1"/>
  <variable name="Y(428,10)" index="55946" value="1"/>
  <variable name="Y(482,63)" index="63073" value="1"/>
  <variable name="Y(617,39)" index="80734" value="1"/>
  <variable name="Y(630,4)" index="82402" value="1"/>
  <variable name="Y(641,59)" index="83898" value="1"/>
  <variable name="Y(657,18)" index="85953" value="1"/>
  <variable name="Y(723,42)" index="94623" value="1"/>
  <variable name="Y(831,33)" index="108762" value="1"/>
  <variable name="Y(864,1)" index="113053" value="1"/>
  <variable name="Y(921,21)" index="120540" value="1"/>
  <variable name="Y(961,8)" index="125767" value="1"/>
  <variable name="Y(1037,48)" index="135763" value="1"/>
  <variable name="Y(1070,24)" index="140062" value="1"/>
  <variable name="Y(1096,7)" index="143451" value="1"/>
  <variable name="Y(1124,38)" index="147150" value="1"/>
  <variable name="Y(1144,65)" index="149797" value="1"/>
  <variable name="Y(1183,29)" index="154870" value="1"/>
  <variable name="Y(1210,27)" index="158405" value="1"/>
  <variable name="Y(1211,28)" index="158537" value="1"/>
  <variable name="Y(1243,62)" index="162763" value="1"/>
  <variable name="Y(1271,68)" index="166436" value="1"/>
  <variable name="Y(1300,40)" index="170208" value="1"/>
  <variable name="Y(1310,54)" index="171532" value="1"/>
  <variable name="Y(1365,34)" index="178717" value="1"/>
  <variable name="Y(1399,20)" index="183157" value="1"/>
  <variable name="Y(1438,15)" index="188261" value="1"/>
  <variable name="Y(1460,49)" index="191177" value="1"/>
  <variable name="Y(1475,12)" index="193105" value="1"/>
  <variable name="Y(1492,26)" index="195346" value="1"/>
  <variable name="Y(1518,13)" index="198739" value="1"/>
  <variable name="Y(1521,17)" index="199136" value="1"/>
  <variable name="Y(1532,32)" index="200592" value="1"/>
  <variable name="Y(1666,61)" index="218175" value="1"/>
  <variable name="Y(1692,45)" index="221565" value="1"/>
  <variable name="Y(1734,44)" index="227066" value="1"/>
  <variable name="Y(1751,19)" index="229268" value="1"/>
  <variable name="Y(1771,52)" index="231921" value="1"/>
  <variable name="Y(1788,51)" index="234147" value="1"/>
  <variable name="Y(1819,37)" index="238194" value="1"/>
  <variable name="Y(1895,7)" index="248120" value="1"/>
  <variable name="Y(2010,5)" index="263183" value="1"/>
  <variable name="Y(2066,22)" index="270536" value="1"/>
  <variable name="Y(2126,47)" index="278421" value="1"/>
  <variable name="Y(2187,67)" index="286431" value="1"/>
  <variable name="Y(2198,11)" index="287817" value="1"/>
  <variable name="Y(2328,46)" index="304882" value="1"/>
  <variable name="Y(2346,3)" index="307197" value="1"/>
  <variable name="Y(2367,25)" index="309970" value="1"/>
  <variable name="Y(2564,55)" index="335807" value="1"/>
  <variable name="Y(2567,60)" index="336205" value="1"/>
  <variable name="Y(2597,30)" index="340105" value="1"/>
  <variable name="Y(2650,35)" index="347053" value="1"/>
  <variable name="Y(2666,57)" index="349171" value="1"/>
  <variable name="Y(2700,29)" index="353597" value="1"/>
  <variable name="X(1,4,630)" index="358783" value="1"/>
  <variable name="X(1,12,1124)" index="362011" value="1"/>
  <variable name="X(1,63,482)" index="364103" value="1"/>
  <variable name="X(1,69,864)" index="367219" value="1"/>
  <variable name="X(2,7,373)" index="369462" value="1"/>
  <variable name="X(2,8,961)" index="372784" value="1"/>
  <variable name="X(2,34,1365)" index="375922" value="1"/>
  <variable name="X(2,35,2650)" index="379941" value="1"/>
  <variable name="X(2,70,236)" index="380261" value="1"/>
  <variable name="X(3,4,373)" index="383132" value="1"/>
  <variable name="X(3,7,1096)" index="386589" value="1"/>
  <variable name="X(3,59,176)" index="388403" value="1"/>
  <variable name="X(3,71,2346)" index="393307" value="1"/>
  <variable name="X(4,1,482)" index="394177" value="1"/>
  <variable name="X(4,3,1096)" index="397525" value="1"/>
  <variable name="X(4,9,373)" index="399536" value="1"/>
  <variable name="X(4,28,1211)" index="403108" value="1"/>
  <variable name="X(4,30,2597)" index="407228" value="1"/>
  <variable name="X(4,65,1144)" index="408509" value="1"/>
  <variable name="X(4,72,630)" index="410729" value="1"/>
  <variable name="X(5,6,371)" index="413204" value="1"/>
  <variable name="X(5,8,236)" index="415803" value="1"/>
  <variable name="X(5,73,2010)" index="420311" value="1"/>
  <variable name="X(6,5,2010)" index="423045" value="1"/>
  <variable name="X(6,7,240)" index="424009" value="1"/>
  <variable name="X(6,74,371)" index="426874" value="1"/>
  <variable name="X(7,2,2650)" index="431887" value="1"/>
  <variable name="X(7,3,373)" index="432344" value="1"/>
  <variable name="X(7,6,2010)" index="436715" value="1"/>
  <variable name="X(7,11,2198)" index="439637" value="1"/>
  <variable name="X(7,19,1096)" index="441269" value="1"/>
  <variable name="X(7,36,34)" index="442941" value="1"/>
  <variable name="X(7,51,164)" index="445805" value="1"/>
  <variable name="X(7,52,1399)" index="449774" value="1"/>
  <variable name="X(7,59,1895)" index="453004" value="1"/>
  <variable name="X(7,75,240)" index="454083" value="1"/>
  <variable name="X(8,2,236)" index="456813" value="1"/>
  <variable name="X(8,5,371)" index="459682" value="1"/>
  <variable name="X(8,76,961)" index="463006" value="1"/>
  <variable name="X(9,4,1096)" index="465875" value="1"/>
  <variable name="X(9,27,1210)" index="468723" value="1"/>
  <variable name="X(9,30,428)" index="470675" value="1"/>
  <variable name="X(9,77,373)" index="473354" value="1"/>
  <variable name="X(10,30,482)" index="476197" value="1"/>
  <variable name="X(10,78,428)" index="478877" value="1"/>
  <variable name="X(11,7,34)" index="481217" value="1"/>
  <variable name="X(11,12,355)" index="484272" value="1"/>
  <variable name="X(11,79,2198)" index="488849" value="1"/>
  <variable name="X(12,1,864)" index="490249" value="1"/>
  <variable name="X(12,11,34)" index="492153" value="1"/>
  <variable name="X(12,51,1124)" index="495977" value="1"/>
  <variable name="X(12,52,2126)" index="499713" value="1"/>
  <variable name="X(12,56,355)" index="500676" value="1"/>
  <variable name="X(12,80,1475)" index="504530" value="1"/>
  <variable name="X(13,62,617)" index="506406" value="1"/>
  <variable name="X(13,81,1518)" index="510041" value="1"/>
  <variable name="X(14,62,630)" index="511887" value="1"/>
  <variable name="X(14,82,13)" index="514004" value="1"/>
  <variable name="X(15,63,641)" index="517366" value="1"/>
  <variable name="X(15,83,1438)" index="520897" value="1"/>
  <variable name="X(16,63,657)" index="522850" value="1"/>
  <variable name="X(16,84,134)" index="525061" value="1"/>
  <variable name="X(17,18,657)" index="528318" value="1"/>
  <variable name="X(17,26,1492)" index="531887" value="1"/>
  <variable name="X(17,85,1521)" index="534650" value="1"/>
  <variable name="X(18,17,1492)" index="537355" value="1"/>
  <variable name="X(18,40,1300)" index="539897" value="1"/>
  <variable name="X(18,86,657)" index="541988" value="1"/>
  <variable name="X(19,7,2198)" index="546263" value="1"/>
  <variable name="X(19,52,831)" index="547630" value="1"/>
  <variable name="X(19,53,2367)" index="551900" value="1"/>
  <variable name="X(19,87,1751)" index="554018" value="1"/>
  <variable name="X(20,88,1399)" index="556400" value="1"/>
  <variable name="X(21,52,864)" index="558599" value="1"/>
  <variable name="X(21,89,921)" index="561390" value="1"/>
  <variable name="X(22,52,921)" index="564124" value="1"/>
  <variable name="X(22,90,2066)" index="568003" value="1"/>
  <variable name="X(23,53,961)" index="569632" value="1"/>
  <variable name="X(24,53,1037)" index="572442" value="1"/>
  <variable name="X(24,92,1070)" index="575209" value="1"/>
  <variable name="X(25,53,1070)" index="577943" value="1"/>
  <variable name="X(25,93,2367)" index="581974" value="1"/>
  <variable name="X(26,17,657)" index="582998" value="1"/>
  <variable name="X(26,63,1532)" index="586607" value="1"/>
  <variable name="X(26,94,1492)" index="589301" value="1"/>
  <variable name="X(27,9,1096)" index="591639" value="1"/>
  <variable name="X(27,95,1210)" index="594487" value="1"/>
  <variable name="X(28,4,1144)" index="597155" value="1"/>
  <variable name="X(28,96,1211)" index="599956" value="1"/>
  <variable name="X(29,53,1183)" index="602662" value="1"/>
  <variable name="X(29,97,2700)" index="606913" value="1"/>
  <variable name="X(30,4,482)" index="607429" value="1"/>
  <variable name="X(30,9,1210)" index="610891" value="1"/>
  <variable name="X(30,10,428)" index="612843" value="1"/>
  <variable name="X(30,98,2597)" index="617746" value="1"/>
  <variable name="X(31,68,1243)" index="619126" value="1"/>
  <variable name="X(31,99,146)" index="620763" value="1"/>
  <variable name="X(32,68,1271)" index="624622" value="1"/>
  <variable name="X(32,100,1532)" index="627617" value="1"/>
  <variable name="X(33,52,1310)" index="630129" value="1"/>
  <variable name="X(33,101,831)" index="632384" value="1"/>
  <variable name="X(34,2,961)" index="635248" value="1"/>
  <variable name="X(34,53,408)" index="637429" value="1"/>
  <variable name="X(34,102,1365)" index="641120" value="1"/>
  <variable name="X(35,2,1365)" index="643854" value="1"/>
  <variable name="X(35,103,2650)" index="647873" value="1"/>
  <variable name="X(36,7,1399)" index="649356" value="1"/>
  <variable name="X(36,104,34)" index="650725" value="1"/>
  <variable name="X(37,51,1460)" index="654885" value="1"/>
  <variable name="X(37,105,1819)" index="657978" value="1"/>
  <variable name="X(38,51,1475)" index="660368" value="1"/>
  <variable name="X(38,106,1124)" index="662751" value="1"/>
  <variable name="X(39,40,1492)" index="665853" value="1"/>
  <variable name="X(39,42,723)" index="667818" value="1"/>
  <variable name="X(39,107,617)" index="670446" value="1"/>
  <variable name="X(40,18,1492)" index="674055" value="1"/>
  <variable name="X(40,39,723)" index="676020" value="1"/>
  <variable name="X(40,108,1300)" index="679331" value="1"/>
  <variable name="X(41,42,617)" index="681382" value="1"/>
  <variable name="X(41,62,1518)" index="685017" value="1"/>
  <variable name="X(41,109,39)" index="686272" value="1"/>
  <variable name="X(42,39,617)" index="689584" value="1"/>
  <variable name="X(42,41,1518)" index="693219" value="1"/>
  <variable name="X(42,110,723)" index="695158" value="1"/>
  <variable name="X(43,62,1666)" index="698835" value="1"/>
  <variable name="X(44,62,1692)" index="701595" value="1"/>
  <variable name="X(44,112,1734)" index="704371" value="1"/>
  <variable name="X(45,62,1734)" index="707105" value="1"/>
  <variable name="X(45,113,1692)" index="709797" value="1"/>
  <variable name="X(46,114,2328)" index="713167" value="1"/>
  <variable name="X(47,52,1751)" index="715324" value="1"/>
  <variable name="X(47,115,2126)" index="718433" value="1"/>
  <variable name="X(48,52,1771)" index="720812" value="1"/>
  <variable name="X(48,116,1037)" index="722812" value="1"/>
  <variable name="X(49,51,1788)" index="726297" value="1"/>
  <variable name="X(49,117,1460)" index="728703" value="1"/>
  <variable name="X(50,51,1819)" index="731796" value="1"/>
  <variable name="X(50,118,164)" index="732875" value="1"/>
  <variable name="X(51,7,1895)" index="737340" value="1"/>
  <variable name="X(51,12,1475)" index="739654" value="1"/>
  <variable name="X(51,37,1819)" index="742732" value="1"/>
  <variable name="X(51,38,1124)" index="744771" value="1"/>
  <variable name="X(51,49,1460)" index="747841" value="1"/>
  <variable name="X(51,50,164)" index="749279" value="1"/>
  <variable name="X(51,119,1788)" index="753637" value="1"/>
  <variable name="X(52,7,2010)" index="756593" value="1"/>
  <variable name="X(52,12,864)" index="758181" value="1"/>
  <variable name="X(52,19,1751)" index="761802" value="1"/>
  <variable name="X(52,20,1399)" index="764184" value="1"/>
  <variable name="X(52,21,921)" index="766440" value="1"/>
  <variable name="X(52,22,2066)" index="770319" value="1"/>
  <variable name="X(52,33,831)" index="771818" value="1"/>
  <variable name="X(52,47,2126)" index="775847" value="1"/>
  <variable name="X(52,48,1037)" index="777492" value="1"/>
  <variable name="X(52,53,2700)" index="781889" value="1"/>
  <variable name="X(52,54,1310)" index="783233" value="1"/>
  <variable name="X(52,55,2564)" index="787221" value="1"/>
  <variable name="X(52,120,1771)" index="789162" value="1"/>
  <variable name="X(53,19,2198)" index="792323" value="1"/>
  <variable name="X(53,24,1070)" index="793929" value="1"/>
  <variable name="X(53,25,2367)" index="797960" value="1"/>
  <variable name="X(53,29,2700)" index="801027" value="1"/>
  <variable name="X(53,34,961)" index="802022" value="1"/>
  <variable name="X(53,52,1037)" index="804832" value="1"/>
  <variable name="X(53,121,408)" index="806937" value="1"/>
  <variable name="X(54,52,2010)" index="811273" value="1"/>
  <variable name="X(54,122,1310)" index="813307" value="1"/>
  <variable name="X(55,52,2066)" index="816797" value="1"/>
  <variable name="X(55,123,2564)" index="820029" value="1"/>
  <variable name="X(56,12,2126)" index="822325" value="1"/>
  <variable name="X(56,124,355)" index="823288" value="1"/>
  <variable name="X(57,61,2187)" index="827854" value="1"/>
  <variable name="X(57,125,2666)" index="831067" value="1"/>
  <variable name="X(58,53,2198)" index="833333" value="1"/>
  <variable name="X(59,3,2346)" index="836215" value="1"/>
  <variable name="X(59,7,2650)" index="839253" value="1"/>
  <variable name="X(59,61,176)" index="839513" value="1"/>
  <variable name="X(59,127,641)" index="842712" value="1"/>
  <variable name="X(60,61,2328)" index="847133" value="1"/>
  <variable name="X(60,128,2567)" index="850106" value="1"/>
  <variable name="X(61,57,2666)" index="852939" value="1"/>
  <variable name="X(61,59,641)" index="853648" value="1"/>
  <variable name="X(61,60,2567)" index="858308" value="1"/>
  <variable name="X(61,62,2328)" index="860803" value="1"/>
  <variable name="X(61,63,134)" index="861343" value="1"/>
  <variable name="X(61,64,176)" index="864119" value="1"/>
  <variable name="X(61,67,2187)" index="868864" value="1"/>
  <variable name="X(61,129,1666)" index="871077" value="1"/>
  <variable name="X(62,13,1518)" index="873663" value="1"/>
  <variable name="X(62,14,13)" index="874892" value="1"/>
  <variable name="X(62,41,617)" index="878230" value="1"/>
  <variable name="X(62,44,1734)" index="882081" value="1"/>
  <variable name="X(62,45,1692)" index="884773" value="1"/>
  <variable name="X(62,46,2328)" index="888143" value="1"/>
  <variable name="X(62,61,1666)" index="890215" value="1"/>
  <variable name="X(62,63,630)" index="891913" value="1"/>
  <variable name="X(62,130,1243)" index="895260" value="1"/>
  <variable name="X(63,1,630)" index="897381" value="1"/>
  <variable name="X(63,15,1438)" index="900923" value="1"/>
  <variable name="X(63,16,134)" index="902353" value="1"/>
  <variable name="X(63,26,657)" index="905610" value="1"/>
  <variable name="X(63,61,641)" index="908328" value="1"/>
  <variable name="X(63,62,1243)" index="911664" value="1"/>
  <variable name="X(63,68,1532)" index="914687" value="1"/>
  <variable name="X(63,131,482)" index="916371" value="1"/>
  <variable name="X(64,61,2567)" index="921190" value="1"/>
  <variable name="X(64,132,176)" index="921533" value="1"/>
  <variable name="X(65,4,2597)" index="926688" value="1"/>
  <variable name="X(65,133,1144)" index="927969" value="1"/>
  <variable name="X(67,61,2666)" index="932225" value="1"/>
  <variable name="X(67,135,2187)" index="934480" value="1"/>
  <variable name="X(68,31,146)" index="935173" value="1"/>
  <variable name="X(68,32,1532)" index="939293" value="1"/>
  <variable name="X(68,63,1243)" index="941738" value="1"/>
  <variable name="X(68,136,1271)" index="944500" value="1"/>
  <variable name="C(13,14)" index="946014" value="1"/>
  <variable name="C(34,11)" index="946099" value="1"/>
  <variable name="C(34,7)" index="946100" value="2"/>
  <variable name="C(34,36)" index="946101" value="3"/>
  <variable name="C(134,63)" index="946529" value="1"/>
  <variable name="C(134,16)" index="946530" value="2"/>
  <variable name="C(146,31)" index="946584" value="1"/>
  <variable name="C(164,51)" index="946669" value="1"/>
  <variable name="C(164,50)" index="946670" value="2"/>
  <variable name="C(176,59)" index="946711" value="1"/>
  <variable name="C(176,61)" index="946712" value="2"/>
  <variable name="C(176,64)" index="946713" value="3"/>
  <variable name="C(236,8)" index="946974" value="1"/>
  <variable name="C(236,2)" index="946975" value="2"/>
  <variable name="C(240,7)" index="946989" value="1"/>
  <variable name="C(355,12)" index="947538" value="1"/>
  <variable name="C(355,56)" index="947539" value="2"/>
  <variable name="C(371,5)" index="947598" value="1"/>
  <variable name="C(371,6)" index="947599" value="2"/>
  <variable name="C(373,7)" index="947605" value="1"/>
  <variable name="C(373,3)" index="947606" value="2"/>
  <variable name="C(373,4)" index="947607" value="3"/>
  <variable name="C(373,9)" index="947608" value="4"/>
  <variable name="C(408,53)" index="947816" value="1"/>
  <variable name="C(428,30)" index="947914" value="1"/>
  <variable name="C(428,10)" index="947915" value="2"/>
  <variable name="C(482,30)" index="948212" value="1"/>
  <variable name="C(482,4)" index="948213" value="2"/>
  <variable name="C(482,1)" index="948214" value="3"/>
  <variable name="C(482,63)" index="948215" value="4"/>
  <variable name="C(617,62)" index="948812" value="1"/>
  <variable name="C(617,41)" index="948813" value="2"/>
  <variable name="C(617,42)" index="948814" value="3"/>
  <variable name="C(617,39)" index="948815" value="4"/>
  <variable name="C(630,62)" index="948869" value="1"/>
  <variable name="C(630,63)" index="948870" value="1.9999999999999998"/>
  <variable name="C(630,1)" index="948871" value="3"/>
  <variable name="C(630,4)" index="948872" value="4"/>
  <variable name="C(641,63)" index="948920" value="1"/>
  <variable name="C(641,61)" index="948921" value="2"/>
  <variable name="C(641,59)" index="948922" value="3"/>
  <variable name="C(657,63)" index="948993" value="1"/>
  <variable name="C(657,26)" index="948994" value="2"/>
  <variable name="C(657,17)" index="948995" value="3"/>
  <variable name="C(657,18)" index="948996" value="4"/>
  <variable name="C(723,39)" index="949357" value="1"/>
  <variable name="C(723,42)" index="949358" value="2"/>
  <variable name="C(831,52)" index="949986" value="1"/>
  <variable name="C(831,33)" index="949987" value="2"/>
  <variable name="C(864,52)" index="950134" value="1"/>
  <variable name="C(864,12)" index="950135" value="2"/>
  <variable name="C(864,1)" index="950136" value="3"/>
  <variable name="C(921,52)" index="950415" value="1"/>
  <variable name="C(921,21)" index="950416" value="1.9999999999999998"/>
  <variable name="C(961,53)" index="950625" value="1"/>
  <variable name="C(961,34)" index="950626" value="2"/>
  <variable name="C(961,2)" index="950627" value="3"/>
  <variable name="C(961,8)" index="950628" value="4"/>
  <variable name="C(1037,53)" index="951087" value="1"/>
  <variable name="C(1037,52)" index="951088" value="2"/>
  <variable name="C(1037,48)" index="951089" value="3"/>
  <variable name="C(1070,53)" index="951265" value="1"/>
  <variable name="C(1070,24)" index="951266" value="2"/>
  <variable name="C(1096,9)" index="951424" value="1"/>
  <variable name="C(1096,4)" index="951425" value="2"/>
  <variable name="C(1096,3)" index="951426" value="3"/>
  <variable name="C(1096,7)" index="951427" value="4"/>
  <variable name="C(1124,12)" index="951573" value="1"/>
  <variable name="C(1124,51)" index="951574" value="2"/>
  <variable name="C(1124,38)" index="951575" value="3"/>
  <variable name="C(1144,4)" index="951688" value="1"/>
  <variable name="C(1144,65)" index="951689" value="2"/>
  <variable name="C(1210,9)" index="952048" value="1"/>
  <variable name="C(1210,27)" index="952049" value="2"/>
  <variable name="C(1211,28)" index="952052" value="1"/>
  <variable name="C(1243,68)" index="952232" value="1"/>
  <variable name="C(1243,63)" index="952233" value="2"/>
  <variable name="C(1243,62)" index="952234" value="3"/>
  <variable name="C(1271,68)" index="952394" value="1"/>
  <variable name="C(1300,40)" index="952541" value="1"/>
  <variable name="C(1310,52)" index="952589" value="1"/>
  <variable name="C(1310,54)" index="952590" value="2"/>
  <variable name="C(1365,2)" index="952872" value="1"/>
  <variable name="C(1365,34)" index="952873" value="2"/>
  <variable name="C(1399,7)" index="953046" value="1"/>
  <variable name="C(1399,52)" index="953047" value="2"/>
  <variable name="C(1399,20)" index="953048" value="3"/>
  <variable name="C(1438,15)" index="953238" value="1"/>
  <variable name="C(1460,51)" index="953369" value="1"/>
  <variable name="C(1460,49)" index="953370" value="2"/>
  <variable name="C(1475,51)" index="953443" value="1"/>
  <variable name="C(1475,12)" index="953444" value="2"/>
  <variable name="C(1492,40)" index="953554" value="1"/>
  <variable name="C(1492,18)" index="953555" value="2"/>
  <variable name="C(1492,17)" index="953556" value="3"/>
  <variable name="C(1492,26)" index="953557" value="4"/>
  <variable name="C(1518,41)" index="953735" value="1"/>
  <variable name="C(1518,62)" index="953736" value="2"/>
  <variable name="C(1518,13)" index="953737" value="3"/>
  <variable name="C(1532,63)" index="953834" value="1"/>
  <variable name="C(1532,68)" index="953835" value="2"/>
  <variable name="C(1532,32)" index="953836" value="3"/>
  <variable name="C(1666,62)" index="954645" value="1"/>
  <variable name="C(1666,61)" index="954646" value="2"/>
  <variable name="C(1692,62)" index="954788" value="1"/>
  <variable name="C(1692,45)" index="954789" value="2"/>
  <variable name="C(1734,62)" index="955020" value="1"/>
  <variable name="C(1734,44)" index="955021" value="2"/>
  <variable name="C(1751,52)" index="955101" value="1"/>
  <variable name="C(1751,19)" index="955102" value="2"/>
  <variable name="C(1771,52)" index="955195" value="1"/>
  <variable name="C(1788,51)" index="955278" value="1"/>
  <variable name="C(1819,51)" index="955432" value="1"/>
  <variable name="C(1819,37)" index="955433" value="2"/>
  <variable name="C(1895,7)" index="955795" value="1"/>
  <variable name="C(2010,52)" index="956320" value="1"/>
  <variable name="C(2010,7)" index="956321" value="2"/>
  <variable name="C(2010,6)" index="956322" value="3"/>
  <variable name="C(2010,5)" index="956323" value="4"/>
  <variable name="C(2066,52)" index="956595" value="1"/>
  <variable name="C(2066,22)" index="956596" value="2"/>
  <variable name="C(2126,12)" index="956913" value="1"/>
  <variable name="C(2126,52)" index="956914" value="2"/>
  <variable name="C(2126,47)" index="956915" value="3"/>
  <variable name="C(2187,61)" index="957217" value="1"/>
  <variable name="C(2187,67)" index="957218" value="2"/>
  <variable name="C(2198,53)" index="957271" value="1"/>
  <variable name="C(2198,19)" index="957272" value="2"/>
  <variable name="C(2198,7)" index="957273" value="3"/>
  <variable name="C(2198,11)" index="957274" value="4"/>
  <variable name="C(2328,61)" index="957903" value="1"/>
  <variable name="C(2328,62)" index="957904" value="2"/>
  <variable name="C(2328,46)" index="957905" value="3"/>
  <variable name="C(2346,3)" index="957982" value="1"/>
  <variable name="C(2367,53)" index="958073" value="1"/>
  <variable name="C(2367,25)" index="958074" value="2.0000000020000002"/>
  <variable name="C(2564,55)" index="958958" value="1"/>
  <variable name="C(2567,61)" index="958966" value="1"/>
  <variable name="C(2567,60)" index="958967" value="2"/>
  <variable name="C(2597,4)" index="959100" value="1"/>
  <variable name="C(2597,30)" index="959101" value="2"/>
  <variable name="C(2650,7)" index="959397" value="1"/>
  <variable name="C(2650,2)" index="959398" value="2"/>
  <variable name="C(2650,35)" index="959399" value="3"/>
  <variable name="C(2666,61)" index="959483" value="1"/>
  <variable name="C(2666,57)" index="959484" value="2"/>
  <variable name="C(2700,53)" index="959645" value="1"/>
  <variable name="C(2700,29)" index="959646" value="2"/>
 </variables>
</CPLEXSolution>
